# Solution for model r3_t9_m0_6 Batch Number: 1
# Finished Task: 4 / 9
# Makespan: 483.0, Total Distance: 95.0, Total Time: 0.2674
# R O S F Batch
0 0 5 0.0 0.0 -1
1 1 9 0.0 0.0 -1
2 2 -1 0.0 0.0 -1
3 0 -1 454.0 483.0 0
4 -1 -1 -1.0 -1.0 0
5 0 8 327.0 358.0 0
6 -1 -1 -1.0 -1.0 0
7 -1 -1 -1.0 -1.0 0
8 0 3 411.0 442.0 0
9 1 -1 442.0 471.0 0
10 -1 -1 -1.0 -1.0 0
11 -1 -1 -1.0 -1.0 0
